
Gurobi 9.5.1 (mac64[x86]) logging started Sat Jun 11 11:17:32 2022

Set parameter LogFile to value "/Users/keyvanmajd/Documents/GitHub/NNRepLayer_v2/demos/walking_example/dynamic_constraint/repair_net/logs/opt_log_6_11_2022_11_17_10.log"
Gurobi Optimizer version 9.5.1 build v9.5.1rc2 (mac64[x86])
Thread count: 4 physical cores, 8 logical processors, using up to 8 threads
Optimize a model with 516 rows, 184 columns and 1469 nonzeros
Model fingerprint: 0xd087fa1a
Model has 151 quadratic objective terms
Coefficient statistics:
  Matrix range     [3e-03, 2e+01]
  Objective range  [2e-02, 3e+00]
  QObjective range [1e-01, 2e+00]
  Bounds range     [1e+01, 6e+01]
  RHS range        [7e-04, 2e+01]
Presolve removed 323 rows and 12 columns
Presolve time: 0.01s
Presolved: 193 rows, 172 columns, 1129 nonzeros
Presolved model has 151 quadratic objective terms
Ordering time: 0.00s

Barrier statistics:
 Dense cols : 12
 AA' NZ     : 1.299e+03
 Factor NZ  : 1.982e+03
 Factor Ops : 2.891e+04 (less than 1 second per iteration)
 Threads    : 1

                  Objective                Residual
Iter       Primal          Dual         Primal    Dual     Compl     Time
   0   4.02987091e+07 -4.04812742e+07  6.41e+03 4.82e+02  9.17e+05     0s
   1   1.28199967e+07 -1.31168368e+07  3.52e+03 2.64e+02  5.11e+05     0s
   2   9.52381894e+04 -8.87477398e+05  3.08e+02 2.31e+01  6.11e+04     0s
   3   1.26870131e+02 -5.84021186e+05  4.17e+00 3.13e-01  2.26e+03     0s
   4   1.07848393e+02 -4.38847290e+05  2.78e+00 2.09e-01  1.61e+03     0s
   5   1.05787373e+02 -2.67892526e+05  2.15e+00 1.62e-01  1.31e+03     0s
   6   1.06143821e+02 -8.52744970e+04  1.93e+00 1.45e-01  1.15e+03     0s
   7   1.07993212e+02  1.24644697e+05  1.86e+00 1.40e-01  1.09e+03     0s
   8   1.11096770e+02  4.59081366e+05  1.80e+00 1.35e-01  1.04e+03     0s
   9   1.17441763e+02  1.00817595e+06  1.77e+00 1.33e-01  1.00e+03     0s
  10   1.00649321e+09 -1.00740746e+09  3.21e+04 2.40e+03  2.29e+07     0s
  11   3.34435790e+08 -3.36209279e+08  1.81e+04 1.35e+03  1.41e+07     0s
  12   9.27001375e+05 -5.28982069e+06  9.67e+02 6.68e+01  1.01e+06     0s
  13   1.99707835e+02 -3.85460447e+06  8.20e+00 5.66e-01  1.82e+04     0s
  14   1.31627901e+02 -2.65439401e+06  4.62e+00 3.19e-01  1.08e+04     0s
  15   1.10761461e+02 -1.96422424e+06  2.91e+00 2.01e-01  7.38e+03     0s
  16   1.06876916e+02 -1.58413873e+06  2.45e+00 1.69e-01  6.54e+03     0s
  17   1.08622879e+02 -3.61534150e+05  1.95e+00 1.35e-01  5.38e+03     0s
  18   1.12519290e+02  1.47862020e+06  1.83e+00 1.27e-01  4.95e+03     0s
  19   1.16882353e+02  3.25007884e+06  1.79e+00 1.23e-01  4.74e+03     0s
  20   1.20759301e+02  5.16839747e+06  1.77e+00 1.22e-01  4.68e+03     0s
  21   1.23961214e+02  7.95998746e+06  1.76e+00 1.22e-01  4.69e+03     0s
  22   1.32357595e+02  1.20938436e+07  1.76e+00 1.21e-01  4.71e+03     0s
  23   1.63587877e+02  2.76579107e+07  1.74e+00 1.17e-01  4.77e+03     0s
  24   1.76595822e+02  6.67659693e+07  1.73e+00 1.16e-01  5.09e+03     0s
  25   1.78454830e+02  1.67847272e+08  1.73e+00 4.30e-06  5.21e+03     0s
  26   1.00649321e+09 -1.00740746e+09  3.21e+04 2.40e+03  2.29e+07     0s
  27   7.96023177e+04 -8.21707008e+04  2.82e+02 3.60e+01  1.71e+03     0s
  28   3.57007739e+03 -3.29015585e+03  5.70e+01 7.90e+00  6.96e+01     0s
  29   1.03393495e+02  1.06780344e+02  5.20e+00 7.16e-01  6.07e-01     0s
  30   8.47450252e+01  1.14788888e+02  2.79e+00 3.84e-01  2.80e-01     0s
  31   9.17570800e+01  1.61551253e+02  2.23e+00 3.06e-01  3.54e-01     0s
  32   9.97347511e+01  2.04421021e+02  2.15e+00 2.93e-01  6.26e-01     0s
  33   1.96525330e+02  5.16389596e+02  2.09e+00 2.35e-01  4.39e+00     0s
  34   2.07428917e+02  1.89470010e+03  1.93e+00 1.25e-01  2.98e+01     0s
  35   1.84708237e+02  1.24917988e+05  2.51e+00 1.63e-01  1.33e+04     0s
  36*  1.85239396e+02  2.05670673e+07  3.90e-03 4.85e-04  8.36e-01     0s
  37*  1.85239485e+02  2.02784373e+10  3.90e-06 2.16e-06  8.36e-04     0s
  38*  1.85240520e+02  2.02770267e+13  3.90e-09 7.74e-08  8.36e-07     0s
  39*  1.85240520e+02  2.02770250e+16  3.90e-12 1.63e-08  8.36e-10     0s

Barrier performed 39 iterations in 0.02 seconds (0.01 work units)
Infeasible model

